/*********************************************
    * Lab01 - simple
    * Author: Coso
    * Creation Date: Mar, 2019
    *********************************************/
instance_name = "medium_instance_18_simple";

d = 5;
r = 15;

SCj = [269 285 273 265 258];
Dk = [66 95 71 98 51 57 38 97 79 33 81 65 89 53 52];

Cjk = [[35 44 77 48 50 75 76 56 85 69 85 59 43 65 58]
 [65 33 69 33 61 36 86 88 46 82 72 56 35 85 58]
 [89 36 30 76 74 45 69 35 37 81 62 39 47 87 85]
 [78 70 79 81 43 76 61 57 86 57 46 54 88 56 56]
 [50 36 51 74 51 89 32 34 86 67 89 49 31 52 81]];
